(declare-fun temp10601_2 () (_ BitVec 64))
(declare-fun temp10601_1 () (_ BitVec 64))
(declare-fun temp10601_4 () (_ BitVec 64))
(declare-fun temp10601_3 () (_ BitVec 64))
(declare-fun temp10601_5 () (_ BitVec 64))
(declare-fun var984667 () (_ BitVec 64))
(declare-fun temp10601_6 () (_ BitVec 64))
(declare-fun temp10601_7 () (_ BitVec 64))
(declare-fun temp10601_8 () (_ BitVec 64))
(declare-fun ARGNAME_input_NAMEEND_DIMSIZE
             ()
             (Array (_ BitVec 64) (_ BitVec 64)))
(declare-fun temp10601_9 () (_ BitVec 64))
(declare-fun temp10601_10 () (_ BitVec 64))
(declare-fun temp10601_11 () (_ BitVec 64))
(declare-fun temp10601_12 () (_ BitVec 64))
(declare-fun temp10601_13 () (_ BitVec 64))
(declare-fun temp10601_14 () (_ BitVec 64))
(declare-fun temp10601_15 () (_ BitVec 64))
(declare-fun temp10601_16 () (_ BitVec 64))
(declare-fun temp10601_17 () (_ BitVec 64))
(declare-fun temp10601_18 () (_ BitVec 64))
(declare-fun temp10601_19 () (_ BitVec 64))
(declare-fun temp10601_20 () (_ BitVec 64))
(declare-fun temp10601_21 () (_ BitVec 64))
(declare-fun temp10601_22 () (_ BitVec 64))
(declare-fun temp10601_23 () (_ BitVec 64))
(declare-fun temp10601_25 () (_ BitVec 64))
(declare-fun temp10601_24 () (_ BitVec 64))
(declare-fun ARGNAME_input_NAMEEND_DIM () (_ BitVec 64))
(declare-fun temp10601_26 () (_ BitVec 64))
(declare-fun temp10601_27 () (_ BitVec 64))
(declare-fun var984666 () (_ BitVec 64))
(declare-fun temp10601_28 () (_ BitVec 64))
(declare-fun var984671 () (_ BitVec 64))
(declare-fun temp10601_30 () (_ BitVec 64))
(declare-fun temp10601_29 () (_ BitVec 64))
(declare-fun temp10601_31 () (_ BitVec 64))
(declare-fun temp10601_32 () (_ BitVec 64))
(declare-fun var984670 () (_ BitVec 64))
(declare-fun temp10601_33 () (_ BitVec 64))
(declare-fun var984672 () (_ BitVec 64))
(declare-fun temp10601_34 () (_ BitVec 64))
(declare-fun ARGNAME_B_NAMEEND_DIM () (_ BitVec 64))
(declare-fun var1117880 () (_ BitVec 64))
(declare-fun temp10601_35 () (_ BitVec 64))
(declare-fun temp10601_36 () (_ BitVec 64))
(declare-fun temp10601_37 () (_ BitVec 64))
(declare-fun var921814 () (_ BitVec 64))
(declare-fun var921834 () (_ BitVec 64))
(declare-fun temp10601_38 () (_ BitVec 64))
(declare-fun temp10601_39 () (_ BitVec 64))
(declare-fun var921835 () (_ BitVec 64))
(declare-fun temp10601_41 () (_ BitVec 64))
(declare-fun temp10601_40 () (_ BitVec 64))
(declare-fun temp10601_42 () (_ BitVec 64))
(declare-fun temp10601_43 () (_ BitVec 64))
(declare-fun var921836 () (_ BitVec 64))
(declare-fun temp10601_44 () (_ BitVec 64))
(declare-fun temp10601_45 () (_ BitVec 64))
(declare-fun ARGNAME_B_NAMEEND_DIMSIZE () (Array (_ BitVec 64) (_ BitVec 64)))
(declare-fun temp10601_46 () (_ BitVec 64))
(declare-fun temp10601_47 () (_ BitVec 64))
(declare-fun temp10601_48 () (_ BitVec 64))
(declare-fun temp10601_49 () (_ BitVec 64))
(declare-fun temp10601_50 () (_ BitVec 64))
(declare-fun temp10601_51 () (_ BitVec 64))
(declare-fun temp10601_52 () (_ BitVec 64))
(declare-fun temp10601_53 () (_ BitVec 64))
(declare-fun temp10601_54 () (_ BitVec 64))
(declare-fun temp10601_55 () (_ BitVec 64))
(declare-fun temp10601_56 () (_ BitVec 64))
(declare-fun temp10601_57 () (_ BitVec 64))
(declare-fun temp10601_58 () (_ BitVec 64))
(declare-fun temp10601_59 () (_ BitVec 64))
(declare-fun temp10601_60 () (_ BitVec 64))
(declare-fun temp10601_61 () (_ BitVec 64))
(declare-fun temp10601_63 () (_ BitVec 64))
(declare-fun temp10601_62 () (_ BitVec 64))
(declare-fun temp10601_64 () (_ BitVec 64))
(declare-fun temp10601_65 () (_ BitVec 64))
(declare-fun var921838 () (_ BitVec 64))
(declare-fun var921839 () (_ BitVec 64))
(declare-fun temp10601_66 () (_ BitVec 64))
(declare-fun temp10601_67 () (_ BitVec 64))
(declare-fun var1709354 () (_ BitVec 64))
(declare-fun var1841618 () (_ BitVec 64))
(declare-fun temp10601_68 () (_ BitVec 64))
(declare-fun var1904193 () (_ BitVec 64))
(declare-fun temp10601_69 () (_ BitVec 64))
(declare-fun var863548 () (_ BitVec 64))
(declare-fun temp10601_70 () (_ BitVec 64))
(declare-fun temp10601_72 () (_ BitVec 64))
(declare-fun temp10601_71 () (_ BitVec 64))
(declare-fun temp10601_74 () (_ BitVec 64))
(declare-fun temp10601_73 () (_ BitVec 64))
(declare-fun temp10601_75 () (_ BitVec 64))
(declare-fun var863972 () (_ BitVec 64))
(assert (= temp10601_2 #x0000000000000000))
(assert (= temp10601_1 temp10601_2))
(assert (= temp10601_4 #x0000000000000001))
(assert (= temp10601_3 temp10601_4))
(assert (= temp10601_5 #xffffffffffffffff))
(assert (= var984667 temp10601_5))
(assert (= temp10601_6 #x0000000000000000))
(assert (= temp10601_7 temp10601_6))
(assert (= temp10601_8 (select ARGNAME_input_NAMEEND_DIMSIZE temp10601_7)))
(assert (= temp10601_9 #x0000000000000001))
(assert (= temp10601_10 temp10601_9))
(assert (= temp10601_11 (select ARGNAME_input_NAMEEND_DIMSIZE temp10601_10)))
(assert (= temp10601_12 #x0000000000000002))
(assert (= temp10601_13 temp10601_12))
(assert (= temp10601_14 (select ARGNAME_input_NAMEEND_DIMSIZE temp10601_13)))
(assert (= temp10601_15 #x0000000000000003))
(assert (= temp10601_16 temp10601_15))
(assert (= temp10601_17 (select ARGNAME_input_NAMEEND_DIMSIZE temp10601_16)))
(assert (= temp10601_18 #x0000000000000004))
(assert (= temp10601_19 temp10601_18))
(assert (= temp10601_20 (select ARGNAME_input_NAMEEND_DIMSIZE temp10601_19)))
(assert (= temp10601_21 #x0000000000000005))
(assert (= temp10601_22 temp10601_21))
(assert (= temp10601_23 (select ARGNAME_input_NAMEEND_DIMSIZE temp10601_22)))
(assert (= temp10601_25 #x0000000000000000))
(assert (= temp10601_24
   (ite (bvslt var984667 temp10601_25)
        (bvadd ARGNAME_input_NAMEEND_DIM var984667)
        var984667)))
(assert (= temp10601_26 temp10601_24))
(assert (= temp10601_27 (select ARGNAME_input_NAMEEND_DIMSIZE temp10601_26)))
(assert (= var984666 temp10601_27))
(assert (bvslt temp10601_24 ARGNAME_input_NAMEEND_DIM))
(assert (= temp10601_28 #xfffffffffffffffe))
(assert (= var984671 temp10601_28))
(assert (= temp10601_30 #x0000000000000000))
(assert (= temp10601_29
   (ite (bvslt var984671 temp10601_30)
        (bvadd ARGNAME_input_NAMEEND_DIM var984671)
        var984671)))
(assert (= temp10601_31 temp10601_29))
(assert (= temp10601_32 (select ARGNAME_input_NAMEEND_DIMSIZE temp10601_31)))
(assert (= var984670 temp10601_32))
(assert (bvslt temp10601_29 ARGNAME_input_NAMEEND_DIM))
(assert (= var984672
   (ite (= var984666 var984670) #x0000000000000001 #x0000000000000000)))
(assert (= temp10601_33 #x0000000000000001))
(assert (= var984672 temp10601_33))
(assert (= temp10601_34 #x0000000000000002))
(assert (= var1117880
   (ite (bvslt ARGNAME_B_NAMEEND_DIM temp10601_34)
        #x0000000000000001
        #x0000000000000000)))
(assert (= temp10601_35 #x0000000000000000))
(assert (= var1117880 temp10601_35))
(assert (= temp10601_36 #xfffffffffffffffe))
(assert (= temp10601_37 #xffffffffffffffff))
(assert (= var921834 (ite (= var921814 #x0000000000000001) temp10601_36 temp10601_37)))
(assert (= temp10601_38 #xfffffffffffffffe))
(assert (= temp10601_39 #xffffffffffffffff))
(assert (= var921835 (ite (= var921814 #x0000000000000001) temp10601_38 temp10601_39)))
(assert (= temp10601_41 #x0000000000000000))
(assert (= temp10601_40
   (ite (bvslt var921834 temp10601_41)
        (bvadd ARGNAME_input_NAMEEND_DIM var921834)
        var921834)))
(assert (= temp10601_42 temp10601_40))
(assert (= temp10601_43 (select ARGNAME_input_NAMEEND_DIMSIZE temp10601_42)))
(assert (= var921836 temp10601_43))
(assert (bvslt temp10601_40 ARGNAME_input_NAMEEND_DIM))
(assert (= temp10601_44 #x0000000000000000))
(assert (= temp10601_45 temp10601_44))
(assert (= temp10601_46 (select ARGNAME_B_NAMEEND_DIMSIZE temp10601_45)))
(assert (= temp10601_47 #x0000000000000001))
(assert (= temp10601_48 temp10601_47))
(assert (= temp10601_49 (select ARGNAME_B_NAMEEND_DIMSIZE temp10601_48)))
(assert (= temp10601_50 #x0000000000000002))
(assert (= temp10601_51 temp10601_50))
(assert (= temp10601_52 (select ARGNAME_B_NAMEEND_DIMSIZE temp10601_51)))
(assert (= temp10601_53 #x0000000000000003))
(assert (= temp10601_54 temp10601_53))
(assert (= temp10601_55 (select ARGNAME_B_NAMEEND_DIMSIZE temp10601_54)))
(assert (= temp10601_56 #x0000000000000004))
(assert (= temp10601_57 temp10601_56))
(assert (= temp10601_58 (select ARGNAME_B_NAMEEND_DIMSIZE temp10601_57)))
(assert (= temp10601_59 #x0000000000000005))
(assert (= temp10601_60 temp10601_59))
(assert (= temp10601_61 (select ARGNAME_B_NAMEEND_DIMSIZE temp10601_60)))
(assert (= temp10601_63 #x0000000000000000))
(assert (= temp10601_62
   (ite (bvslt var921835 temp10601_63)
        (bvadd ARGNAME_B_NAMEEND_DIM var921835)
        var921835)))
(assert (= temp10601_64 temp10601_62))
(assert (= temp10601_65 (select ARGNAME_B_NAMEEND_DIMSIZE temp10601_64)))
(assert (= var921838 temp10601_65))
(assert (bvslt temp10601_62 ARGNAME_B_NAMEEND_DIM))
(assert (= var921839
   (ite (= var921836 var921838) #x0000000000000001 #x0000000000000000)))
(assert (= temp10601_66 #x0000000000000001))
(assert (= var921839 temp10601_66))
(assert (= temp10601_67 #x0000000000000000))
(assert (= var1709354 temp10601_67))
(assert (= var1841618 var1709354))
(assert (= temp10601_68 #x0000000000000001))
(assert (= var1904193 temp10601_68))
(assert (= temp10601_69 #x0000000000000000))
(assert (= var863548 temp10601_69))
(assert (= temp10601_70 #x0000000000000000))
(assert (= var863548 temp10601_70))
(assert (= temp10601_72 #x0000000000000000))
(assert (= temp10601_71 temp10601_72))
(assert (= temp10601_74 #x0000000000000000))
(assert (= temp10601_73 temp10601_74))
(assert (= temp10601_75 #x0000000000000000))
(assert (= var863972 temp10601_75))
(model-add temp10601_2 () (_ BitVec 64) #x0000000000000000)
(model-add temp10601_1 () (_ BitVec 64) #x0000000000000000)
(model-add temp10601_4 () (_ BitVec 64) #x0000000000000001)
(model-add temp10601_3 () (_ BitVec 64) #x0000000000000001)
(model-add temp10601_5 () (_ BitVec 64) #xffffffffffffffff)
(model-add var984667 () (_ BitVec 64) #xffffffffffffffff)
(model-add temp10601_6 () (_ BitVec 64) #x0000000000000000)
(model-add temp10601_7 () (_ BitVec 64) #x0000000000000000)
(model-add temp10601_8
           ()
           (_ BitVec 64)
           (select ARGNAME_input_NAMEEND_DIMSIZE #x0000000000000000))
(model-add temp10601_9 () (_ BitVec 64) #x0000000000000001)
(model-add temp10601_10 () (_ BitVec 64) #x0000000000000001)
(model-add temp10601_11
           ()
           (_ BitVec 64)
           (select ARGNAME_input_NAMEEND_DIMSIZE #x0000000000000001))
(model-add temp10601_12 () (_ BitVec 64) #x0000000000000002)
(model-add temp10601_13 () (_ BitVec 64) #x0000000000000002)
(model-add temp10601_14
           ()
           (_ BitVec 64)
           (select ARGNAME_input_NAMEEND_DIMSIZE #x0000000000000002))
(model-add temp10601_15 () (_ BitVec 64) #x0000000000000003)
(model-add temp10601_16 () (_ BitVec 64) #x0000000000000003)
(model-add temp10601_17
           ()
           (_ BitVec 64)
           (select ARGNAME_input_NAMEEND_DIMSIZE #x0000000000000003))
(model-add temp10601_18 () (_ BitVec 64) #x0000000000000004)
(model-add temp10601_19 () (_ BitVec 64) #x0000000000000004)
(model-add temp10601_20
           ()
           (_ BitVec 64)
           (select ARGNAME_input_NAMEEND_DIMSIZE #x0000000000000004))
(model-add temp10601_21 () (_ BitVec 64) #x0000000000000005)
(model-add temp10601_22 () (_ BitVec 64) #x0000000000000005)
(model-add temp10601_23
           ()
           (_ BitVec 64)
           (select ARGNAME_input_NAMEEND_DIMSIZE #x0000000000000005))
(model-add temp10601_25 () (_ BitVec 64) #x0000000000000000)
(model-add temp10601_24
           ()
           (_ BitVec 64)
           (bvadd #xffffffffffffffff ARGNAME_input_NAMEEND_DIM))
(model-add temp10601_26
           ()
           (_ BitVec 64)
           (bvadd #xffffffffffffffff ARGNAME_input_NAMEEND_DIM))
(model-add temp10601_27
           ()
           (_ BitVec 64)
           (select ARGNAME_input_NAMEEND_DIMSIZE
                   (bvadd #xffffffffffffffff ARGNAME_input_NAMEEND_DIM)))
(model-add var984666
           ()
           (_ BitVec 64)
           (select ARGNAME_input_NAMEEND_DIMSIZE
                   (bvadd #xffffffffffffffff ARGNAME_input_NAMEEND_DIM)))
(model-add temp10601_28 () (_ BitVec 64) #xfffffffffffffffe)
(model-add var984671 () (_ BitVec 64) #xfffffffffffffffe)
(model-add temp10601_30 () (_ BitVec 64) #x0000000000000000)
(model-add temp10601_29
           ()
           (_ BitVec 64)
           (bvadd #xfffffffffffffffe ARGNAME_input_NAMEEND_DIM))
(model-add temp10601_31
           ()
           (_ BitVec 64)
           (bvadd #xfffffffffffffffe ARGNAME_input_NAMEEND_DIM))
(model-add temp10601_32
           ()
           (_ BitVec 64)
           (select ARGNAME_input_NAMEEND_DIMSIZE
                   (bvadd #xfffffffffffffffe ARGNAME_input_NAMEEND_DIM)))
(model-add var984670
           ()
           (_ BitVec 64)
           (select ARGNAME_input_NAMEEND_DIMSIZE
                   (bvadd #xfffffffffffffffe ARGNAME_input_NAMEEND_DIM)))
(model-add temp10601_33 () (_ BitVec 64) #x0000000000000001)
(model-add var984672 () (_ BitVec 64) #x0000000000000001)





